GLPSOL: GLPK LP/MIP Solver, v4.55
Parameter(s) specified in the command line:
 -m tmp.mod
Reading model section from tmp.mod...
Reading data section from tmp.mod...
740 lines were read
Generating obj...
Generating kirhoff...
Generating init_charge...
Generating batt_size...
Model has been successfully generated
GLPK Simplex Optimizer, v4.55
642 rows, 1092 columns, 2232 non-zeros
Preprocessing...
490 rows, 1017 columns, 2111 non-zeros
Scaling...
 A: min|aij| =  1.000e+00  max|aij| =  1.000e+00  ratio =  1.000e+00
Problem data seem to be well scaled
Constructing initial basis...
Size of triangular part is 422
      0: obj =   0.000000000e+00  infeas =  3.390e+02 (68)
*   209: obj =   3.200000000e+01  infeas =  0.000e+00 (34)
*   257: obj =   2.600000000e+01  infeas =  0.000e+00 (33)
OPTIMAL LP SOLUTION FOUND
Time used:   0.0 secs
Memory used: 2.2 Mb (2290821 bytes)
#OUTPUT:
26
-2 0 0 0 -12 -5 -2 -8 0 0 0 0 0 0 0 0 0 0 1 -10 -1 0 0 -10 0 0 5 0 0 0 0 1 5 0 -10 -8 0 0 0 0 0 0 0 0 -8 2 0 0 -6 0 0 0 0 0 2 0 0 0 0 6 0 5 0 0 0 0 0 -15 0 -1 0 0 0 -1 0 0 0 0 0 0 0 0 -2 0 0 -6 -5 0 0 0 0 0 0 0 0 0 0 0 
-2 -1 0 -1 -3 0 0 -8 -3 0 -2 1 0 0 0 0 -2 0 0 -2 -1 0 0 0 0 -1 0 -1 0 0 0 0 0 0 0 -8 0 0 0 0 0 0 0 0 -10 0 0 0 -9 -1 -1 0 -1 0 0 0 0 0 0 9 -1 0 0 0 0 0 0 -17 -1 -1 2 0 0 -1 -2 0 0 0 -2 0 1 1 -1 1 0 -9 0 0 0 0 0 0 0 0 0 0 0 0 
-2 0 0 0 0 0 0 -2 0 0 -2 0 -2 -2 0 0 -2 0 0 0 0 0 -2 0 0 0 0 0 0 0 0 0 0 0 0 0 0 0 0 0 0 0 0 0 0 0 0 0 -4 0 0 0 0 0 0 0 0 0 0 4 0 0 0 0 0 0 0 -6 0 0 0 0 0 0 0 0 0 0 0 0 0 0 0 0 0 -4 0 0 0 0 0 0 0 0 0 0 0 0 
-2 -6 0 -1 0 -8 -1 -2 0 0 -1 0 -2 -2 0 -1 1 5 0 -1 -15 0 -2 0 0 -2 -9 0 0 5 0 0 8 0 0 0 -4 -19 0 2 0 -1 0 0 0 0 -19 0 0 0 0 0 0 0 0 0 0 0 0 0 0 8 0 0 0 0 0 -17 -1 -1 -2 0 -5 0 0 -15 -2 0 0 -1 0 0 0 0 0 0 -8 0 0 0 0 0 0 0 0 0 0 0 
-2 -8 2 0 0 0 -2 0 0 -16 -2 0 0 0 0 0 0 8 1 0 0 0 0 0 0 -2 0 0 0 8 0 1 0 0 0 0 0 0 0 0 0 0 0 0 0 0 0 0 0 1 0 0 0 0 0 0 0 0 0 0 0 0 0 0 0 0 0 -13 0 1 -2 0 -8 0 0 0 0 0 0 0 -1 0 0 -4 0 0 0 0 0 0 0 0 0 0 0 0 0 0 
#OUTPUT END
Model has been successfully processed
